benchmarks/norm/freire1/freire1_norm_inv1_len5_3.smt2
;--------------------------------------------------------------------------
; Benchmark created with Zazu
; Benchmark: 		freire1_norm_inv1_len5_3
; Created:   		2022-01-05 21:35
; Generator of the ideal: 
; 		 -r + r00 + r^2 + 2*x - 2*x00 - r00^2
; Testing invariant: -r*r00^2*x^2 - 2*r^3*x^3*x00 + 2*r^3*x^2*x00 + r*r00*x^2 + 0*r^3 + 0*r*x + 0*r^2 + r^3*r00*x^3 - 2*r^3*x^3 + 2*r^3*x^4 + r^4*x^2 + r^5*x^3 - r^4*x^3 - r^2*x^2 - r^3*r00*x^2 + r^3*x^2 - r^5*x^2 + 2*r*x^3 - 2*r*x^2*x00 + 0*r*r00^2 + 0*r*x00 + 0*r*r00 + r^3*r00^2*x^2 - r^3*r00^2*x^3
;--------------------------------------------------------------------------

(set-logic NIA)
(set-option :produce-proofs true)

(declare-const r00 Int)
(declare-const x00 Int)

(assert 
	(exists
		((r Int) (x Int))
		(and
			(= (- (+ (* (- 1) r) r00 (* r r) (* 2 x)) (* 2 x00) (* r00 r00)) 0)

			(or
				(not (= (- (+ (- (+ (- (+ (- (+ (- (+ (- (* (- 1) (+ r 1) r00 r00 (- x r) (- x r)) (* 2 (+ r 1) (+ r 1) (+ r 1) (- x r) (- x r) (- x r) x00)) (* 2 (+ r 1) (+ r 1) (+ r 1) (- x r) (- x r) x00) (* (+ r 1) r00 (- x r) (- x r)) (* 0 (+ r 1) (+ r 1) (+ r 1)) (* 0 (+ r 1) (- x r)) (* 0 (+ r 1) (+ r 1)) (* (+ r 1) (+ r 1) (+ r 1) r00 (- x r) (- x r) (- x r))) (* 2 (+ r 1) (+ r 1) (+ r 1) (- x r) (- x r) (- x r))) (* 2 (+ r 1) (+ r 1) (+ r 1) (- x r) (- x r) (- x r) (- x r)) (* (+ r 1) (+ r 1) (+ r 1) (+ r 1) (- x r) (- x r)) (* (+ r 1) (+ r 1) (+ r 1) (+ r 1) (+ r 1) (- x r) (- x r) (- x r))) (* (+ r 1) (+ r 1) (+ r 1) (+ r 1) (- x r) (- x r) (- x r)) (* (+ r 1) (+ r 1) (- x r) (- x r)) (* (+ r 1) (+ r 1) (+ r 1) r00 (- x r) (- x r))) (* (+ r 1) (+ r 1) (+ r 1) (- x r) (- x r))) (* (+ r 1) (+ r 1) (+ r 1) (+ r 1) (+ r 1) (- x r) (- x r))) (* 2 (+ r 1) (- x r) (- x r) (- x r))) (* 2 (+ r 1) (- x r) (- x r) x00)) (* 0 (+ r 1) r00 r00) (* 0 (+ r 1) x00) (* 0 (+ r 1) r00) (* (+ r 1) (+ r 1) (+ r 1) r00 r00 (- x r) (- x r))) (* (+ r 1) (+ r 1) (+ r 1) r00 r00 (- x r) (- x r) (- x r))) 0))
			)
		)
	)
)
(check-sat)
(get-proof)
(exit)
